5 1
3 8
22 6
27 9
42 8
26 9
26 0
33 0
29 9
23 4
5 0
4 2
1 1
37 6
36 4
30 9
6 0
2 6
26 2
32 5
29 1
19 9
26 6
25 2
37 3
32 7
31 8
37 4
43 9
38 6
43 4
44 6
21 4
23 9
33 1
37 5
35 0
5 9
37 1
26 3
2 9
33 9
4 1
33 3
5 6
31 4
36 8
30 2
8 6
31 6
14 5
5 2
4 3
1 9
2 8
37 0
43 8
22 5
5 5
5 8
21 9
30 6
43 0
39 9
26 4
5 3
3 4
4 8
14 4
3 9
4 0
26 5
3 1
4 9
2 4
5 7
3 3
16 5
32 4
11 5
32 2
33 8
19 4
30 1
33 2
5 4
4 6
31 9
3 2
31 2
2 7
3 0
37 9
35 7
31 7
39 0
39 1
9 9
1 3
37 7
